Version identifier: 20.1.0.0 | 2020-11-10 | 9bedb6d68
Tried aggregator 2 times.
MIP Presolve eliminated 848 rows and 467 columns.
MIP Presolve modified 1684 coefficients.
Aggregator did 90 substitutions.
Reduced MIP has 668 rows, 550 columns, and 2089 nonzeros.
Reduced MIP has 136 binaries, 414 generals, 0 SOSs, and 0 indicators.
Presolve time = 0.01 sec. (3.44 ticks)
Found incumbent of value 10.000000 after 0.02 sec. (5.93 ticks)
Probing fixed 20 vars, tightened 183 bounds.
Probing time = 0.00 sec. (0.55 ticks)
Tried aggregator 2 times.
MIP Presolve eliminated 279 rows and 49 columns.
MIP Presolve modified 68 coefficients.
Aggregator did 19 substitutions.
Reduced MIP has 370 rows, 482 columns, and 1155 nonzeros.
Reduced MIP has 215 binaries, 267 generals, 0 SOSs, and 0 indicators.
Presolve time = 0.00 sec. (1.56 ticks)
Probing time = 0.00 sec. (0.12 ticks)
Tried aggregator 1 time.
Detecting symmetries...
MIP Presolve modified 114 coefficients.
Reduced MIP has 370 rows, 482 columns, and 1155 nonzeros.
Reduced MIP has 215 binaries, 267 generals, 0 SOSs, and 0 indicators.
Presolve time = 0.00 sec. (0.93 ticks)
Probing time = 0.00 sec. (0.11 ticks)
Clique table members: 74.
MIP emphasis: balance optimality and feasibility.
MIP search method: dynamic search.
Parallel mode: deterministic, using up to 24 threads.
Root relaxation solution time = 0.00 sec. (1.15 ticks)

        Nodes                                         Cuts/
   Node  Left     Objective  IInf  Best Integer    Best Bound    ItCnt     Gap

*     0+    0                           10.0000        0.0000           100.00%
      0     0        0.5000    34       10.0000        0.5000      138   95.00%
*     0+    0                            9.0000        0.5000            94.44%
*     0+    0                            7.0000        0.5000            92.86%
      0     0        1.4500    50        7.0000      Cuts: 26      236   79.29%
*     0+    0                            6.0000        1.4500            75.83%
      0     0        2.1000   110        6.0000      Cuts: 49      331   65.00%
*     0+    0                            5.0000        2.1000            58.00%
      0     0        2.1429   131        5.0000      Cuts: 16      346   57.14%
      0     0        2.2500   120        5.0000      Cuts: 36      386   55.00%
      0     0        2.3333   125        5.0000      Cuts: 46      408   53.33%
      0     0        2.3333   125        5.0000  ZeroHalf: 32      430   53.33%
      0     0        2.3333    88        5.0000       Cuts: 5      444   53.33%
      0     0        2.3333    96        5.0000      Cuts: 30      495   53.33%
      0     0        cutoff              5.0000        5.0000      495    0.00%
Elapsed time = 0.14 sec. (50.19 ticks, tree = 0.01 MB, solutions = 5)

Clique cuts applied:  1
Implied bound cuts applied:  1
Mixed integer rounding cuts applied:  1
Zero-half cuts applied:  21
Lift and project cuts applied:  2
Gomory fractional cuts applied:  3

Root node processing (before b&c):
  Real time             =    0.14 sec. (50.26 ticks)
Parallel b&c, 24 threads:
  Real time             =    0.00 sec. (0.00 ticks)
  Sync time (average)   =    0.00 sec.
  Wait time (average)   =    0.00 sec.
                          ------------
Total (root+branch&cut) =    0.14 sec. (50.26 ticks)

Solution status = Optimal
Solution LB = 5
Solution UB = 5
Runtime = 0.148263 seconds
	Command being timed: "/home/min/git_repos/CS598MEBProject/CNT-ILP/build/cnt -s 2 ./output/k6_n20/simC_c1_k6_n20_u1_s1_del04.input-right.cnp"
	User time (seconds): 1.86
	System time (seconds): 0.03
	Percent of CPU this job got: 1145%
	Elapsed (wall clock) time (h:mm:ss or m:ss): 0:00.16
	Average shared text size (kbytes): 0
	Average unshared data size (kbytes): 0
	Average stack size (kbytes): 0
	Average total size (kbytes): 0
	Maximum resident set size (kbytes): 48552
	Average resident set size (kbytes): 0
	Major (requiring I/O) page faults: 0
	Minor (reclaiming a frame) page faults: 9050
	Voluntary context switches: 1541
	Involuntary context switches: 227
	Swaps: 0
	File system inputs: 0
	File system outputs: 16
	Socket messages sent: 0
	Socket messages received: 0
	Signals delivered: 0
	Page size (bytes): 4096
	Exit status: 0
